(set-info :source |printed by MathSAT|)
(declare-fun |.x{14}| () Int)
(declare-fun |.x{15}| () Int)
(declare-fun |.x{16}| () Int)
(declare-fun |.x{17}| () Int)
(declare-fun |.x{18}| () Int)
(declare-fun |.y{4}| () Int)
(declare-fun |.y{3}| () Int)
(declare-fun |.y{5}| () Int)
(declare-fun |.loc{4}| () Bool)
(declare-fun |.loc{7}| () Bool)
(declare-fun |.loc{5}| () Bool)
(declare-fun |.loc{8}| () Bool)
(declare-fun |.loc{6}| () Bool)
(declare-fun |.loc{9}| () Bool)
(define-fun .def_22 () Bool (! |.loc{4}| :next |.loc{7}|))
(define-fun .def_144 () Bool (not .def_22))
(define-fun .def_24 () Bool (! |.loc{5}| :next |.loc{8}|))
(define-fun .def_234 () Bool (and .def_24 .def_144))
(define-fun .def_26 () Bool (! |.loc{6}| :next |.loc{9}|))
(define-fun .def_227 () Bool (not .def_26))
(define-fun .def_235 () Bool (and .def_227 .def_234))
(define-fun .def_12 ((i_0 Int)) Int (! i_0 :next |.x{16}|))
(define-fun .def_230 ((i_0 Int)) Bool (<= 0 (.def_12 i_0)))
(define-fun .def_8 ((m_2 Int)) Int (! m_2 :next |.x{14}|))
(define-fun .def_121 ((m_2 Int) (i_0 Int)) Bool (<= (.def_8 m_2) (.def_12 i_0)))
(define-fun .def_122 ((m_2 Int) (i_0 Int)) Bool (not (.def_121 m_2 i_0)))
(define-fun .def_231 ((m_2 Int) (i_0 Int)) Bool (and (.def_122 m_2 i_0) (.def_230 i_0)))
(define-fun .def_14 ((x_2 Int)) Int (! x_2 :next |.x{17}|))
(define-fun .def_229 ((x_2 Int)) Bool (<= 0 (.def_14 x_2)))
(define-fun .def_232 ((m_2 Int) (x_2 Int) (i_0 Int)) Bool (and (.def_229 x_2) (.def_231 m_2 i_0)))
(define-fun .def_10 ((n_2 Int)) Int (! n_2 :next |.x{15}|))
(define-fun .def_63 ((x_2 Int) (n_2 Int)) Bool (<= (.def_10 n_2) (.def_14 x_2)))
(define-fun .def_64 ((x_2 Int) (n_2 Int)) Bool (not (.def_63 x_2 n_2)))
(define-fun .def_233 ((m_2 Int) (x_2 Int) (n_2 Int) (i_0 Int)) Bool (and (.def_64 x_2 n_2) (.def_232 m_2 x_2 i_0)))
(define-fun .def_236 ((m_2 Int) (x_2 Int) (n_2 Int) (i_0 Int)) Bool (! (and (.def_233 m_2 x_2 n_2 i_0) .def_235) :init true))
(define-fun .def_236 ((m_2 Int) (x_2 Int) (n_2 Int) (i_0 Int)) Bool (.def_236 m_2 x_2 n_2 i_0))
(define-fun .def_18 ((axy_2 Int)) Int (! axy_2 :next |.y{4}|))
(define-fun .def_214 ((axy_2 Int)) Bool (= |.x{18}| (.def_18 axy_2)))
(define-fun .def_16 ((y_2 Int)) Int (! y_2 :next |.x{18}|))
(define-fun .def_210 ((y_2 Int)) Bool (= |.x{17}| (.def_16 y_2)))
(define-fun .def_208 ((x_2 Int)) Bool (= |.x{16}| (.def_14 x_2)))
(define-fun .def_126 ((n_2 Int)) Bool (= (.def_10 n_2) |.x{15}|))
(define-fun .def_124 ((m_2 Int)) Bool (= (.def_8 m_2) |.x{14}|))
(define-fun .def_207 ((m_2 Int) (n_2 Int)) Bool (and (.def_124 m_2) (.def_126 n_2)))
(define-fun .def_209 ((m_2 Int) (x_2 Int) (n_2 Int)) Bool (and (.def_207 m_2 n_2) (.def_208 x_2)))
(define-fun .def_211 ((y_2 Int) (m_2 Int) (x_2 Int) (n_2 Int)) Bool (and (.def_209 m_2 x_2 n_2) (.def_210 y_2)))
(define-fun .def_212 ((y_2 Int) (m_2 Int) (x_2 Int) (n_2 Int)) Bool (and (.def_210 y_2) (.def_211 y_2 m_2 x_2 n_2)))
(define-fun .def_213 ((y_2 Int) (m_2 Int) (x_2 Int) (n_2 Int)) Bool (and .def_24 (.def_212 y_2 m_2 x_2 n_2)))
(define-fun .def_215 ((axy_2 Int) (y_2 Int) (m_2 Int) (x_2 Int) (n_2 Int)) Bool (and (.def_213 y_2 m_2 x_2 n_2) (.def_214 axy_2)))
(define-fun .def_216 ((axy_2 Int) (y_2 Int) (m_2 Int) (x_2 Int) (n_2 Int) (i_0 Int)) Bool (and (.def_121 m_2 i_0) (.def_215 axy_2 y_2 m_2 x_2 n_2)))
(define-fun .def_217 ((axy_2 Int) (y_2 Int) (m_2 Int) (x_2 Int) (n_2 Int) (i_0 Int)) Bool (and |.loc{9}| (.def_216 axy_2 y_2 m_2 x_2 n_2 i_0)))
(define-fun .def_59 () Bool (not |.loc{7}|))
(define-fun .def_218 ((axy_2 Int) (y_2 Int) (m_2 Int) (x_2 Int) (n_2 Int) (i_0 Int)) Bool (and .def_59 (.def_217 axy_2 y_2 m_2 x_2 n_2 i_0)))
(define-fun .def_66 () Bool (not |.loc{8}|))
(define-fun .def_219 ((axy_2 Int) (y_2 Int) (m_2 Int) (x_2 Int) (n_2 Int) (i_0 Int)) Bool (and .def_66 (.def_218 axy_2 y_2 m_2 x_2 n_2 i_0)))
(define-fun .def_205 ((m_8 Int)) Bool (= |.x{14}| m_8))
(define-fun .def_203 ((n_8 Int)) Bool (= |.x{15}| n_8))
(define-fun .def_199 ((i_6 Int)) Int (* (- 1) i_6))
(define-fun .def_200 ((i_6 Int)) Int (+ |.x{16}| (.def_199 i_6)))
(define-fun .def_201 ((i_6 Int)) Bool (= (.def_200 i_6) 1))
(define-fun .def_194 ((x_7 Int)) Bool (= |.x{17}| x_7))
(define-fun .def_192 ((y_7 Int)) Bool (= |.x{18}| y_7))
(define-fun .def_190 ((axy_7 Int)) Bool (= |.y{4}| axy_7))
(define-fun .def_20 () Int (! |.y{3}| :next |.y{5}|))
(define-fun .def_188 ((axy_7 Int)) Bool (= .def_20 axy_7))
(define-fun .def_185 ((axy_2 Int) (y_7 Int)) Bool (= (.def_18 axy_2) y_7))
(define-fun .def_182 ((y_2 Int) (x_7 Int)) Bool (= (.def_16 y_2) x_7))
(define-fun .def_179 ((i_6 Int) (i_0 Int)) Bool (= (.def_12 i_0) i_6))
(define-fun .def_176 ((n_8 Int) (n_2 Int)) Bool (= (.def_10 n_2) n_8))
(define-fun .def_172 ((m_8 Int) (m_2 Int)) Bool (= (.def_8 m_2) m_8))
(define-fun .def_38 () Bool (not .def_24))
(define-fun .def_30 () Bool (not |.loc{9}|))
(define-fun .def_141 () Bool (and .def_30 .def_38))
(define-fun .def_173 ((m_8 Int) (m_2 Int)) Bool (and .def_141 (.def_172 m_8 m_2)))
(define-fun .def_174 ((m_8 Int) (m_2 Int) (x_2 Int) (n_2 Int)) Bool (and (.def_63 x_2 n_2) (.def_173 m_8 m_2)))
(define-fun .def_177 ((m_8 Int) (m_2 Int) (n_8 Int) (x_2 Int) (n_2 Int)) Bool (and (.def_174 m_8 m_2 x_2 n_2) (.def_176 n_8 n_2)))
(define-fun .def_180 ((m_8 Int) (i_6 Int) (m_2 Int) (n_8 Int) (x_2 Int) (n_2 Int) (i_0 Int)) Bool (and (.def_177 m_8 m_2 n_8 x_2 n_2) (.def_179 i_6 i_0)))
(define-fun .def_183 ((m_8 Int) (i_6 Int) (y_2 Int) (m_2 Int) (n_8 Int) (x_2 Int) (x_7 Int) (n_2 Int) (i_0 Int)) Bool (and (.def_180 m_8 i_6 m_2 n_8 x_2 n_2 i_0) (.def_182 y_2 x_7)))
(define-fun .def_186 ((m_8 Int) (i_6 Int) (axy_2 Int) (y_7 Int) (y_2 Int) (m_2 Int) (n_8 Int) (x_2 Int) (x_7 Int) (n_2 Int) (i_0 Int)) Bool (and (.def_183 m_8 i_6 y_2 m_2 n_8 x_2 x_7 n_2 i_0) (.def_185 axy_2 y_7)))
(define-fun .def_189 ((m_8 Int) (i_6 Int) (axy_2 Int) (y_2 Int) (y_7 Int) (m_2 Int) (n_8 Int) (x_2 Int) (x_7 Int) (n_2 Int) (i_0 Int) (axy_7 Int)) Bool (and (.def_186 m_8 i_6 axy_2 y_7 y_2 m_2 n_8 x_2 x_7 n_2 i_0) (.def_188 axy_7)))
(define-fun .def_191 ((m_8 Int) (i_6 Int) (axy_2 Int) (y_7 Int) (y_2 Int) (m_2 Int) (n_8 Int) (x_2 Int) (x_7 Int) (n_2 Int) (i_0 Int) (axy_7 Int)) Bool (and (.def_189 m_8 i_6 axy_2 y_2 y_7 m_2 n_8 x_2 x_7 n_2 i_0 axy_7) (.def_190 axy_7)))
(define-fun .def_193 ((m_8 Int) (i_6 Int) (axy_2 Int) (y_2 Int) (y_7 Int) (m_2 Int) (n_8 Int) (x_2 Int) (x_7 Int) (n_2 Int) (i_0 Int) (axy_7 Int)) Bool (and (.def_191 m_8 i_6 axy_2 y_7 y_2 m_2 n_8 x_2 x_7 n_2 i_0 axy_7) (.def_192 y_7)))
(define-fun .def_195 ((m_8 Int) (i_6 Int) (axy_2 Int) (y_7 Int) (y_2 Int) (m_2 Int) (n_8 Int) (x_2 Int) (x_7 Int) (n_2 Int) (i_0 Int) (axy_7 Int)) Bool (and (.def_193 m_8 i_6 axy_2 y_2 y_7 m_2 n_8 x_2 x_7 n_2 i_0 axy_7) (.def_194 x_7)))
(define-fun .def_196 ((m_8 Int) (i_6 Int) (axy_2 Int) (y_2 Int) (y_7 Int) (m_2 Int) (n_8 Int) (x_2 Int) (x_7 Int) (n_2 Int) (i_0 Int) (axy_7 Int)) Bool (and |.loc{7}| (.def_195 m_8 i_6 axy_2 y_7 y_2 m_2 n_8 x_2 x_7 n_2 i_0 axy_7)))
(define-fun .def_197 ((m_8 Int) (i_6 Int) (axy_2 Int) (y_7 Int) (y_2 Int) (m_2 Int) (n_8 Int) (x_2 Int) (x_7 Int) (n_2 Int) (i_0 Int) (axy_7 Int)) Bool (and |.loc{8}| (.def_196 m_8 i_6 axy_2 y_2 y_7 m_2 n_8 x_2 x_7 n_2 i_0 axy_7)))
(define-fun .def_202 ((m_8 Int) (i_6 Int) (axy_2 Int) (y_2 Int) (y_7 Int) (m_2 Int) (n_8 Int) (x_2 Int) (x_7 Int) (n_2 Int) (i_0 Int) (axy_7 Int)) Bool (and (.def_197 m_8 i_6 axy_2 y_7 y_2 m_2 n_8 x_2 x_7 n_2 i_0 axy_7) (.def_201 i_6)))
(define-fun .def_204 ((m_8 Int) (i_6 Int) (axy_2 Int) (y_7 Int) (y_2 Int) (m_2 Int) (n_8 Int) (x_2 Int) (x_7 Int) (n_2 Int) (i_0 Int) (axy_7 Int)) Bool (and (.def_202 m_8 i_6 axy_2 y_2 y_7 m_2 n_8 x_2 x_7 n_2 i_0 axy_7) (.def_203 n_8)))
(define-fun .def_206 ((m_8 Int) (i_6 Int) (axy_2 Int) (y_2 Int) (y_7 Int) (m_2 Int) (n_8 Int) (x_2 Int) (x_7 Int) (n_2 Int) (i_0 Int) (axy_7 Int)) Bool (and (.def_204 m_8 i_6 axy_2 y_7 y_2 m_2 n_8 x_2 x_7 n_2 i_0 axy_7) (.def_205 m_8)))
(define-fun .def_220 ((m_8 Int) (i_6 Int) (axy_2 Int) (y_7 Int) (y_2 Int) (m_2 Int) (n_8 Int) (x_2 Int) (x_7 Int) (n_2 Int) (i_0 Int) (axy_7 Int)) Bool (or (.def_206 m_8 i_6 axy_2 y_2 y_7 m_2 n_8 x_2 x_7 n_2 i_0 axy_7) (.def_219 axy_2 y_2 m_2 x_2 n_2 i_0)))
(define-fun .def_221 ((m_8 Int) (i_6 Int) (axy_2 Int) (y_2 Int) (y_7 Int) (m_2 Int) (n_8 Int) (x_2 Int) (x_7 Int) (n_2 Int) (i_0 Int) (axy_7 Int)) Bool (and .def_22 (.def_220 m_8 i_6 axy_2 y_7 y_2 m_2 n_8 x_2 x_7 n_2 i_0 axy_7)))
(define-fun .def_166 () Bool (= |.x{16}| 0))
(define-fun .def_164 ((i_0 Int)) Bool (= (.def_12 i_0) |.x{17}|))
(define-fun .def_159 ((m_2 Int)) Bool (and .def_30 (.def_124 m_2)))
(define-fun .def_160 ((m_2 Int)) Bool (and .def_144 (.def_159 m_2)))
(define-fun .def_161 ((m_2 Int) (n_2 Int)) Bool (and (.def_126 n_2) (.def_160 m_2)))
(define-fun .def_128 ((y_2 Int)) Bool (= (.def_16 y_2) |.y{4}|))
(define-fun .def_162 ((y_2 Int) (m_2 Int) (n_2 Int)) Bool (and (.def_128 y_2) (.def_161 m_2 n_2)))
(define-fun .def_130 ((x_2 Int)) Bool (= (.def_14 x_2) |.x{18}|))
(define-fun .def_163 ((y_2 Int) (m_2 Int) (x_2 Int) (n_2 Int)) Bool (and (.def_130 x_2) (.def_162 y_2 m_2 n_2)))
(define-fun .def_165 ((y_2 Int) (m_2 Int) (x_2 Int) (n_2 Int) (i_0 Int)) Bool (and (.def_163 y_2 m_2 x_2 n_2) (.def_164 i_0)))
(define-fun .def_167 ((y_2 Int) (m_2 Int) (x_2 Int) (n_2 Int) (i_0 Int)) Bool (and (.def_165 y_2 m_2 x_2 n_2 i_0) .def_166))
(define-fun .def_168 ((y_2 Int) (m_2 Int) (x_2 Int) (n_2 Int) (i_0 Int)) Bool (and .def_24 (.def_167 y_2 m_2 x_2 n_2 i_0)))
(define-fun .def_169 ((y_2 Int) (m_2 Int) (x_2 Int) (n_2 Int) (i_0 Int)) Bool (and |.loc{7}| (.def_168 y_2 m_2 x_2 n_2 i_0)))
(define-fun .def_170 ((y_2 Int) (m_2 Int) (x_2 Int) (n_2 Int) (i_0 Int)) Bool (and |.loc{8}| (.def_169 y_2 m_2 x_2 n_2 i_0)))
(define-fun .def_222 ((m_8 Int) (i_6 Int) (axy_2 Int) (y_7 Int) (y_2 Int) (m_2 Int) (n_8 Int) (x_2 Int) (x_7 Int) (n_2 Int) (i_0 Int) (axy_7 Int)) Bool (or (.def_170 y_2 m_2 x_2 n_2 i_0) (.def_221 m_8 i_6 axy_2 y_2 y_7 m_2 n_8 x_2 x_7 n_2 i_0 axy_7)))
(define-fun .def_152 () Int (* (- 1) |.x{17}|))
(define-fun .def_153 ((x_2 Int)) Int (+ (.def_14 x_2) .def_152))
(define-fun .def_154 ((x_2 Int)) Bool (= (.def_153 x_2) (- 1)))
(define-fun .def_148 ((y_2 Int)) Bool (= (.def_16 y_2) |.x{18}|))
(define-fun .def_146 ((axy_2 Int)) Bool (= (.def_18 axy_2) |.y{4}|))
(define-fun .def_140 () Bool (= .def_20 |.y{5}|))
(define-fun .def_142 () Bool (and .def_140 .def_141))
(define-fun .def_143 ((m_2 Int)) Bool (and (.def_124 m_2) .def_142))
(define-fun .def_145 ((m_2 Int)) Bool (and (.def_143 m_2) .def_144))
(define-fun .def_147 ((axy_2 Int) (m_2 Int)) Bool (and (.def_145 m_2) (.def_146 axy_2)))
(define-fun .def_149 ((axy_2 Int) (y_2 Int) (m_2 Int)) Bool (and (.def_147 axy_2 m_2) (.def_148 y_2)))
(define-fun .def_150 ((axy_2 Int) (y_2 Int) (m_2 Int) (n_2 Int)) Bool (and (.def_126 n_2) (.def_149 axy_2 y_2 m_2)))
(define-fun .def_155 ((axy_2 Int) (y_2 Int) (m_2 Int) (x_2 Int) (n_2 Int)) Bool (and (.def_150 axy_2 y_2 m_2 n_2) (.def_154 x_2)))
(define-fun .def_132 ((i_0 Int)) Bool (= (.def_12 i_0) |.x{16}|))
(define-fun .def_156 ((axy_2 Int) (y_2 Int) (m_2 Int) (x_2 Int) (n_2 Int) (i_0 Int)) Bool (and (.def_132 i_0) (.def_155 axy_2 y_2 m_2 x_2 n_2)))
(define-fun .def_157 ((axy_2 Int) (y_2 Int) (m_2 Int) (x_2 Int) (n_2 Int) (i_0 Int)) Bool (and |.loc{7}| (.def_156 axy_2 y_2 m_2 x_2 n_2 i_0)))
(define-fun .def_158 ((axy_2 Int) (y_2 Int) (m_2 Int) (x_2 Int) (n_2 Int) (i_0 Int)) Bool (and .def_66 (.def_157 axy_2 y_2 m_2 x_2 n_2 i_0)))
(define-fun .def_223 ((m_8 Int) (i_6 Int) (axy_2 Int) (y_7 Int) (y_2 Int) (m_2 Int) (n_8 Int) (x_2 Int) (x_7 Int) (n_2 Int) (i_0 Int) (axy_7 Int)) Bool (or (.def_158 axy_2 y_2 m_2 x_2 n_2 i_0) (.def_222 m_8 i_6 axy_2 y_7 y_2 m_2 n_8 x_2 x_7 n_2 i_0 axy_7)))
(define-fun .def_138 ((axy_2 Int)) Bool (= (.def_18 axy_2) |.y{5}|))
(define-fun .def_119 () Bool (= |.x{17}| 0))
(define-fun .def_120 () Bool (and .def_30 .def_119))
(define-fun .def_123 ((m_2 Int) (i_0 Int)) Bool (and .def_120 (.def_122 m_2 i_0)))
(define-fun .def_125 ((m_2 Int) (i_0 Int)) Bool (and (.def_123 m_2 i_0) (.def_124 m_2)))
(define-fun .def_127 ((m_2 Int) (n_2 Int) (i_0 Int)) Bool (and (.def_125 m_2 i_0) (.def_126 n_2)))
(define-fun .def_129 ((y_2 Int) (m_2 Int) (n_2 Int) (i_0 Int)) Bool (and (.def_127 m_2 n_2 i_0) (.def_128 y_2)))
(define-fun .def_131 ((y_2 Int) (m_2 Int) (x_2 Int) (n_2 Int) (i_0 Int)) Bool (and (.def_129 y_2 m_2 n_2 i_0) (.def_130 x_2)))
(define-fun .def_133 ((y_2 Int) (m_2 Int) (x_2 Int) (n_2 Int) (i_0 Int)) Bool (and (.def_131 y_2 m_2 x_2 n_2 i_0) (.def_132 i_0)))
(define-fun .def_134 ((y_2 Int) (m_2 Int) (x_2 Int) (n_2 Int) (i_0 Int)) Bool (and .def_22 (.def_133 y_2 m_2 x_2 n_2 i_0)))
(define-fun .def_135 ((y_2 Int) (m_2 Int) (x_2 Int) (n_2 Int) (i_0 Int)) Bool (and .def_24 (.def_134 y_2 m_2 x_2 n_2 i_0)))
(define-fun .def_136 ((y_2 Int) (m_2 Int) (x_2 Int) (n_2 Int) (i_0 Int)) Bool (and |.loc{7}| (.def_135 y_2 m_2 x_2 n_2 i_0)))
(define-fun .def_137 ((y_2 Int) (m_2 Int) (x_2 Int) (n_2 Int) (i_0 Int)) Bool (and .def_66 (.def_136 y_2 m_2 x_2 n_2 i_0)))
(define-fun .def_139 ((axy_2 Int) (y_2 Int) (m_2 Int) (x_2 Int) (n_2 Int) (i_0 Int)) Bool (and (.def_137 y_2 m_2 x_2 n_2 i_0) (.def_138 axy_2)))
(define-fun .def_224 ((m_8 Int) (i_6 Int) (axy_2 Int) (y_7 Int) (y_2 Int) (m_2 Int) (n_8 Int) (x_2 Int) (x_7 Int) (n_2 Int) (i_0 Int) (axy_7 Int)) Bool (or (.def_139 axy_2 y_2 m_2 x_2 n_2 i_0) (.def_223 m_8 i_6 axy_2 y_7 y_2 m_2 n_8 x_2 x_7 n_2 i_0 axy_7)))
(define-fun .def_116 ((i_3 Int) (i_0 Int)) Bool (= (.def_12 i_0) i_3))
(define-fun .def_114 ((n_5 Int) (n_2 Int)) Bool (= (.def_10 n_2) n_5))
(define-fun .def_109 ((m_2 Int) (m_5 Int)) Bool (= (.def_8 m_2) m_5))
(define-fun .def_105 ((i_3 Int) (x_5 Int)) Bool (= x_5 i_3))
(define-fun .def_104 ((j_1 Int) (y_5 Int)) Bool (= j_1 y_5))
(define-fun .def_106 ((j_1 Int) (y_5 Int) (i_3 Int) (x_5 Int)) Bool (and (.def_104 j_1 y_5) (.def_105 i_3 x_5)))
(define-fun .def_107 ((j_1 Int) (y_5 Int) (i_3 Int) (x_5 Int)) Bool (not (.def_106 j_1 y_5 i_3 x_5)))
(define-fun .def_102 ((m_5 Int)) Bool (= |.x{14}| m_5))
(define-fun .def_99 ((n_5 Int)) Bool (= |.x{15}| n_5))
(define-fun .def_96 ((i_3 Int)) Bool (= |.x{16}| i_3))
(define-fun .def_92 ((j_1 Int)) Bool (= |.x{17}| j_1))
(define-fun .def_90 ((x_5 Int)) Bool (= |.x{18}| x_5))
(define-fun .def_88 ((y_5 Int)) Bool (= |.y{4}| y_5))
(define-fun .def_86 ((axy_5 Int)) Bool (= |.y{5}| axy_5))
(define-fun .def_84 ((axy_5 Int)) Bool (= .def_20 axy_5))
(define-fun .def_81 ((axy_2 Int) (y_5 Int)) Bool (= (.def_18 axy_2) y_5))
(define-fun .def_77 ((y_2 Int) (x_5 Int)) Bool (= (.def_16 y_2) x_5))
(define-fun .def_74 ((j_1 Int) (x_2 Int)) Bool (= (.def_14 x_2) j_1))
(define-fun .def_75 ((j_1 Int) (x_2 Int)) Bool (and .def_30 (.def_74 j_1 x_2)))
(define-fun .def_78 ((j_1 Int) (y_2 Int) (x_2 Int) (x_5 Int)) Bool (and (.def_75 j_1 x_2) (.def_77 y_2 x_5)))
(define-fun .def_79 ((j_1 Int) (y_2 Int) (x_2 Int) (x_5 Int)) Bool (and .def_38 (.def_78 j_1 y_2 x_2 x_5)))
(define-fun .def_82 ((j_1 Int) (axy_2 Int) (y_2 Int) (y_5 Int) (x_2 Int) (x_5 Int)) Bool (and (.def_79 j_1 y_2 x_2 x_5) (.def_81 axy_2 y_5)))
(define-fun .def_85 ((axy_5 Int) (j_1 Int) (axy_2 Int) (y_2 Int) (y_5 Int) (x_2 Int) (x_5 Int)) Bool (and (.def_82 j_1 axy_2 y_2 y_5 x_2 x_5) (.def_84 axy_5)))
(define-fun .def_87 ((axy_5 Int) (j_1 Int) (axy_2 Int) (y_2 Int) (y_5 Int) (x_2 Int) (x_5 Int)) Bool (and (.def_85 axy_5 j_1 axy_2 y_2 y_5 x_2 x_5) (.def_86 axy_5)))
(define-fun .def_89 ((axy_5 Int) (j_1 Int) (axy_2 Int) (y_2 Int) (y_5 Int) (x_2 Int) (x_5 Int)) Bool (and (.def_87 axy_5 j_1 axy_2 y_2 y_5 x_2 x_5) (.def_88 y_5)))
(define-fun .def_91 ((axy_5 Int) (j_1 Int) (axy_2 Int) (y_2 Int) (y_5 Int) (x_2 Int) (x_5 Int)) Bool (and (.def_89 axy_5 j_1 axy_2 y_2 y_5 x_2 x_5) (.def_90 x_5)))
(define-fun .def_93 ((axy_5 Int) (j_1 Int) (axy_2 Int) (y_2 Int) (y_5 Int) (x_2 Int) (x_5 Int)) Bool (and (.def_91 axy_5 j_1 axy_2 y_2 y_5 x_2 x_5) (.def_92 j_1)))
(define-fun .def_94 ((axy_5 Int) (j_1 Int) (axy_2 Int) (y_2 Int) (y_5 Int) (x_2 Int) (x_5 Int)) Bool (and .def_22 (.def_93 axy_5 j_1 axy_2 y_2 y_5 x_2 x_5)))
(define-fun .def_97 ((axy_5 Int) (j_1 Int) (axy_2 Int) (y_2 Int) (y_5 Int) (x_2 Int) (i_3 Int) (x_5 Int)) Bool (and (.def_94 axy_5 j_1 axy_2 y_2 y_5 x_2 x_5) (.def_96 i_3)))
(define-fun .def_100 ((axy_5 Int) (j_1 Int) (axy_2 Int) (n_5 Int) (y_2 Int) (y_5 Int) (x_2 Int) (i_3 Int) (x_5 Int)) Bool (and (.def_97 axy_5 j_1 axy_2 y_2 y_5 x_2 i_3 x_5) (.def_99 n_5)))
(define-fun .def_103 ((axy_5 Int) (j_1 Int) (axy_2 Int) (n_5 Int) (y_2 Int) (y_5 Int) (x_2 Int) (i_3 Int) (x_5 Int) (m_5 Int)) Bool (and (.def_100 axy_5 j_1 axy_2 n_5 y_2 y_5 x_2 i_3 x_5) (.def_102 m_5)))
(define-fun .def_108 ((axy_5 Int) (j_1 Int) (axy_2 Int) (n_5 Int) (y_2 Int) (y_5 Int) (x_2 Int) (i_3 Int) (x_5 Int) (m_5 Int)) Bool (and (.def_103 axy_5 j_1 axy_2 n_5 y_2 y_5 x_2 i_3 x_5 m_5) (.def_107 j_1 y_5 i_3 x_5)))
(define-fun .def_110 ((axy_5 Int) (j_1 Int) (axy_2 Int) (n_5 Int) (y_2 Int) (m_2 Int) (y_5 Int) (x_2 Int) (i_3 Int) (x_5 Int) (m_5 Int)) Bool (and (.def_108 axy_5 j_1 axy_2 n_5 y_2 y_5 x_2 i_3 x_5 m_5) (.def_109 m_2 m_5)))
(define-fun .def_111 ((axy_5 Int) (j_1 Int) (axy_2 Int) (n_5 Int) (y_2 Int) (m_2 Int) (y_5 Int) (x_2 Int) (i_3 Int) (x_5 Int) (m_5 Int)) Bool (and .def_59 (.def_110 axy_5 j_1 axy_2 n_5 y_2 m_2 y_5 x_2 i_3 x_5 m_5)))
(define-fun .def_112 ((axy_5 Int) (j_1 Int) (axy_2 Int) (n_5 Int) (y_2 Int) (m_2 Int) (y_5 Int) (x_2 Int) (i_3 Int) (x_5 Int) (n_2 Int) (m_5 Int)) Bool (and (.def_64 x_2 n_2) (.def_111 axy_5 j_1 axy_2 n_5 y_2 m_2 y_5 x_2 i_3 x_5 m_5)))
(define-fun .def_113 ((axy_5 Int) (j_1 Int) (axy_2 Int) (n_5 Int) (y_2 Int) (m_2 Int) (y_5 Int) (x_2 Int) (i_3 Int) (x_5 Int) (n_2 Int) (m_5 Int)) Bool (and .def_66 (.def_112 axy_5 j_1 axy_2 n_5 y_2 m_2 y_5 x_2 i_3 x_5 n_2 m_5)))
(define-fun .def_115 ((axy_5 Int) (j_1 Int) (axy_2 Int) (n_5 Int) (y_2 Int) (m_2 Int) (y_5 Int) (x_2 Int) (i_3 Int) (x_5 Int) (n_2 Int) (m_5 Int)) Bool (and (.def_113 axy_5 j_1 axy_2 n_5 y_2 m_2 y_5 x_2 i_3 x_5 n_2 m_5) (.def_114 n_5 n_2)))
(define-fun .def_117 ((axy_5 Int) (j_1 Int) (axy_2 Int) (n_5 Int) (y_2 Int) (m_2 Int) (y_5 Int) (x_2 Int) (i_3 Int) (x_5 Int) (n_2 Int) (i_0 Int) (m_5 Int)) Bool (and (.def_115 axy_5 j_1 axy_2 n_5 y_2 m_2 y_5 x_2 i_3 x_5 n_2 m_5) (.def_116 i_3 i_0)))
(define-fun .def_225 ((m_8 Int) (axy_5 Int) (i_6 Int) (j_1 Int) (axy_2 Int) (n_5 Int) (y_7 Int) (y_2 Int) (m_2 Int) (y_5 Int) (n_8 Int) (x_2 Int) (i_3 Int) (x_7 Int) (x_5 Int) (n_2 Int) (m_5 Int) (i_0 Int) (axy_7 Int)) Bool (or (.def_117 axy_5 j_1 axy_2 n_5 y_2 m_2 y_5 x_2 i_3 x_5 n_2 i_0 m_5) (.def_224 m_8 i_6 axy_2 y_7 y_2 m_2 n_8 x_2 x_7 n_2 i_0 axy_7)))
(define-fun .def_71 ((axy_2 Int) (j_2 Int)) Bool (= (.def_18 axy_2) j_2))
(define-fun .def_69 () Bool (= |.y{5}| 42))
(define-fun .def_61 ((j_2 Int)) Bool (= |.y{4}| j_2))
(define-fun .def_57 ((i_4 Int)) Bool (= |.x{18}| i_4))
(define-fun .def_55 ((j_2 Int)) Bool (= |.x{17}| j_2))
(define-fun .def_53 ((i_4 Int)) Bool (= |.x{16}| i_4))
(define-fun .def_51 ((m_6 Int)) Bool (= |.x{14}| m_6))
(define-fun .def_49 ((n_6 Int)) Bool (= |.x{15}| n_6))
(define-fun .def_46 ((aij Int)) Bool (= .def_20 aij))
(define-fun .def_43 ((j_2 Int) (x_2 Int)) Bool (= (.def_14 x_2) j_2))
(define-fun .def_40 ((i_4 Int) (i_0 Int)) Bool (= (.def_12 i_0) i_4))
(define-fun .def_36 ((n_2 Int) (n_6 Int)) Bool (= (.def_10 n_2) n_6))
(define-fun .def_33 ((m_6 Int) (m_2 Int)) Bool (= (.def_8 m_2) m_6))
(define-fun .def_29 ((y_2 Int) (i_4 Int)) Bool (= (.def_16 y_2) i_4))
(define-fun .def_31 ((y_2 Int) (i_4 Int)) Bool (and (.def_29 y_2 i_4) .def_30))
(define-fun .def_34 ((m_6 Int) (y_2 Int) (m_2 Int) (i_4 Int)) Bool (and (.def_31 y_2 i_4) (.def_33 m_6 m_2)))
(define-fun .def_37 ((m_6 Int) (y_2 Int) (m_2 Int) (i_4 Int) (n_2 Int) (n_6 Int)) Bool (and (.def_34 m_6 y_2 m_2 i_4) (.def_36 n_2 n_6)))
(define-fun .def_39 ((m_6 Int) (y_2 Int) (m_2 Int) (i_4 Int) (n_2 Int) (n_6 Int)) Bool (and (.def_37 m_6 y_2 m_2 i_4 n_2 n_6) .def_38))
(define-fun .def_41 ((m_6 Int) (y_2 Int) (m_2 Int) (i_4 Int) (n_2 Int) (i_0 Int) (n_6 Int)) Bool (and (.def_39 m_6 y_2 m_2 i_4 n_2 n_6) (.def_40 i_4 i_0)))
(define-fun .def_44 ((m_6 Int) (y_2 Int) (m_2 Int) (j_2 Int) (x_2 Int) (i_4 Int) (n_2 Int) (n_6 Int) (i_0 Int)) Bool (and (.def_41 m_6 y_2 m_2 i_4 n_2 i_0 n_6) (.def_43 j_2 x_2)))
(define-fun .def_47 ((m_6 Int) (y_2 Int) (m_2 Int) (j_2 Int) (x_2 Int) (i_4 Int) (n_2 Int) (i_0 Int) (n_6 Int) (aij Int)) Bool (and (.def_44 m_6 y_2 m_2 j_2 x_2 i_4 n_2 n_6 i_0) (.def_46 aij)))
(define-fun .def_48 ((m_6 Int) (y_2 Int) (m_2 Int) (j_2 Int) (x_2 Int) (i_4 Int) (n_2 Int) (n_6 Int) (i_0 Int) (aij Int)) Bool (and .def_22 (.def_47 m_6 y_2 m_2 j_2 x_2 i_4 n_2 i_0 n_6 aij)))
(define-fun .def_50 ((m_6 Int) (y_2 Int) (m_2 Int) (j_2 Int) (x_2 Int) (i_4 Int) (n_2 Int) (i_0 Int) (n_6 Int) (aij Int)) Bool (and (.def_48 m_6 y_2 m_2 j_2 x_2 i_4 n_2 n_6 i_0 aij) (.def_49 n_6)))
(define-fun .def_52 ((m_6 Int) (y_2 Int) (m_2 Int) (j_2 Int) (x_2 Int) (i_4 Int) (n_2 Int) (n_6 Int) (i_0 Int) (aij Int)) Bool (and (.def_50 m_6 y_2 m_2 j_2 x_2 i_4 n_2 i_0 n_6 aij) (.def_51 m_6)))
(define-fun .def_54 ((m_6 Int) (y_2 Int) (m_2 Int) (j_2 Int) (x_2 Int) (i_4 Int) (n_2 Int) (i_0 Int) (n_6 Int) (aij Int)) Bool (and (.def_52 m_6 y_2 m_2 j_2 x_2 i_4 n_2 n_6 i_0 aij) (.def_53 i_4)))
(define-fun .def_56 ((m_6 Int) (y_2 Int) (m_2 Int) (j_2 Int) (x_2 Int) (i_4 Int) (n_2 Int) (n_6 Int) (i_0 Int) (aij Int)) Bool (and (.def_54 m_6 y_2 m_2 j_2 x_2 i_4 n_2 i_0 n_6 aij) (.def_55 j_2)))
(define-fun .def_58 ((m_6 Int) (y_2 Int) (m_2 Int) (j_2 Int) (x_2 Int) (i_4 Int) (n_2 Int) (i_0 Int) (n_6 Int) (aij Int)) Bool (and (.def_56 m_6 y_2 m_2 j_2 x_2 i_4 n_2 n_6 i_0 aij) (.def_57 i_4)))
(define-fun .def_60 ((m_6 Int) (y_2 Int) (m_2 Int) (j_2 Int) (x_2 Int) (i_4 Int) (n_2 Int) (n_6 Int) (i_0 Int) (aij Int)) Bool (and (.def_58 m_6 y_2 m_2 j_2 x_2 i_4 n_2 i_0 n_6 aij) .def_59))
(define-fun .def_62 ((m_6 Int) (y_2 Int) (m_2 Int) (j_2 Int) (x_2 Int) (i_4 Int) (n_2 Int) (i_0 Int) (n_6 Int) (aij Int)) Bool (and (.def_60 m_6 y_2 m_2 j_2 x_2 i_4 n_2 n_6 i_0 aij) (.def_61 j_2)))
(define-fun .def_65 ((m_6 Int) (y_2 Int) (m_2 Int) (j_2 Int) (x_2 Int) (i_4 Int) (n_2 Int) (n_6 Int) (i_0 Int) (aij Int)) Bool (and (.def_62 m_6 y_2 m_2 j_2 x_2 i_4 n_2 i_0 n_6 aij) (.def_64 x_2 n_2)))
(define-fun .def_67 ((m_6 Int) (y_2 Int) (m_2 Int) (j_2 Int) (x_2 Int) (i_4 Int) (n_2 Int) (i_0 Int) (n_6 Int) (aij Int)) Bool (and (.def_65 m_6 y_2 m_2 j_2 x_2 i_4 n_2 n_6 i_0 aij) .def_66))
(define-fun .def_70 ((m_6 Int) (y_2 Int) (m_2 Int) (j_2 Int) (x_2 Int) (i_4 Int) (n_2 Int) (n_6 Int) (i_0 Int) (aij Int)) Bool (and (.def_67 m_6 y_2 m_2 j_2 x_2 i_4 n_2 i_0 n_6 aij) .def_69))
(define-fun .def_72 ((axy_2 Int) (m_6 Int) (y_2 Int) (m_2 Int) (j_2 Int) (x_2 Int) (i_4 Int) (n_2 Int) (i_0 Int) (n_6 Int) (aij Int)) Bool (and (.def_70 m_6 y_2 m_2 j_2 x_2 i_4 n_2 n_6 i_0 aij) (.def_71 axy_2 j_2)))
(define-fun .def_226 ((m_2 Int) (axy_2 Int) (n_2 Int) (m_8 Int) (m_6 Int) (n_8 Int) (n_6 Int) (i_6 Int) (y_5 Int) (y_2 Int) (x_2 Int) (i_0 Int) (x_7 Int) (axy_5 Int) (j_1 Int) (y_7 Int) (i_4 Int) (i_3 Int) (x_5 Int) (axy_7 Int) (j_2 Int) (n_5 Int) (aij Int) (m_5 Int)) Bool (or (.def_72 axy_2 m_6 y_2 m_2 j_2 x_2 i_4 n_2 i_0 n_6 aij) (.def_225 m_8 axy_5 i_6 j_1 axy_2 n_5 y_7 y_2 m_2 y_5 n_8 x_2 i_3 x_7 x_5 n_2 m_5 i_0 axy_7)))
(define-fun .def_228 ((m_2 Int) (axy_2 Int) (n_2 Int) (m_8 Int) (m_6 Int) (n_8 Int) (n_6 Int) (i_6 Int) (y_5 Int) (y_2 Int) (x_2 Int) (x_7 Int) (i_0 Int) (axy_5 Int) (j_1 Int) (y_7 Int) (i_4 Int) (i_3 Int) (x_5 Int) (j_2 Int) (axy_7 Int) (n_5 Int) (aij Int) (m_5 Int)) Bool (! (and (.def_226 m_2 axy_2 n_2 m_8 m_6 n_8 n_6 i_6 y_5 y_2 x_2 i_0 x_7 axy_5 j_1 y_7 i_4 i_3 x_5 axy_7 j_2 n_5 aij m_5) .def_227) :trans true))
(define-fun .def_228 ((m_2 Int) (axy_2 Int) (n_2 Int) (m_8 Int) (m_6 Int) (n_8 Int) (n_6 Int) (i_6 Int) (y_5 Int) (y_2 Int) (x_2 Int) (x_7 Int) (i_0 Int) (axy_5 Int) (j_1 Int) (y_7 Int) (i_4 Int) (i_3 Int) (x_5 Int) (j_2 Int) (axy_7 Int) (n_5 Int) (aij Int) (m_5 Int)) Bool (.def_228 m_2 axy_2 n_2 m_8 m_6 n_8 n_6 i_6 y_5 y_2 x_2 x_7 i_0 axy_5 j_1 y_7 i_4 i_3 x_5 j_2 axy_7 n_5 aij m_5))
(define-fun .def_8 ((m_2 Int)) Int (.def_8 m_2))
(define-fun .def_10 ((n_2 Int)) Int (.def_10 n_2))
(define-fun .def_12 ((i_0 Int)) Int (.def_12 i_0))
(define-fun .def_14 ((x_2 Int)) Int (.def_14 x_2))
(define-fun .def_16 ((y_2 Int)) Int (.def_16 y_2))
(define-fun .def_18 ((axy_2 Int)) Int (.def_18 axy_2))
(define-fun .def_239 () Bool (and .def_38 .def_144))
(define-fun .def_240 () Bool (and .def_26 .def_239))
(define-fun .def_237 ((y_2 Int)) Bool (= .def_16 42))
(define-fun .def_238 ((y_2 Int)) Bool (not (.def_237 y_2)))
(define-fun .def_241 ((y_2 Int)) Bool (and (.def_238 y_2) .def_240))
(define-fun .def_242 ((y_2 Int)) Bool (! (not (.def_241 y_2)) :invar-property 0))
(define-fun .def_242 ((y_2 Int)) Bool (.def_242 y_2))
(assert true)
